language ESSENCE' 1.0

letting shifts_ExplicitR2_Occurrence be
        [[true, true, false, false; int(1..4)], [true, true, true, false; int(1..4)],
         [false, false, true, true; int(1..4)]; int(1..3)]
$ Here is a simple "visualisation" for the value above.
$ T T _ _
$ T T T _
$ _ _ T T

letting fin1 be 3
letting fin2 be 3
letting Tasks_EnumSize be 4
